140 300 160 146 112 197 192 153 170 136 158 121 164 157 198 101 182 100 138 113 104 102 198 135 122 173 156 118 129 173 191 197 111 116 142 123 112 100 143 148 136 100 136 166 123 133 134 171 134 172 185 104 174 182 106 162 121 128 146 150 100 136 112 178 153 155 168 131 155 110 146 157 177 182 190 200 114 123 137 114 161 121 186 100 169 192 128 190 186 174 106 186 109 118 129 128 173 197 160 194 106 105 117 183 187 106 149 167 196 186 182 122 106 167 122 141 124 116 131 109 190 137 161 165 155 190 160 195 153 119 154 159 191 171 108 143 143 157 109 138 108 157 